\ENCODING=ISO-8859-1
\Problem name: ilog.cplex

Minimize
 obj1: z
Subject To
 c1: 4 W_0 + 2 W_1 + 3 W_2 + 5 W_3 + W_4 <= 12
 c2: 4 W_0 + 2 W_1 + 3 W_2 + 5 W_3 + W_4 >= 5
 c3: 3 W_0 + W_3 - 2 A_0 - 2 A_1 - 2 A_3 - z <= 0
 c4: W_1 + W_4 - A_0 - A_1 - 2 A_2 - A_3 - A_4 - z <= 0
 c5: W_0 + W_2 + 2 W_3 - A_0 - 2 A_1 - 2 A_4 - z <= 0
 c6: W_1 + W_3 - A_2 - A_3 - A_4 - z <= 0
 c7: 2 W_2 + W_3 - A_0 - A_1 - 2 A_2 - A_3 - 2 A_4 - z <= 0
 c8: - 4 W_0 - 2 W_1 - 3 W_2 - 5 W_3 - W_4 + 11.9462890625 A_0
     + 11.9462890625 A_1 + 11.9462890625 A_2 + 11.9462890625 A_3
     + 11.9462890625 A_4 >= -0.05
 c9: - 4 W_0 - 2 W_1 - 3 W_2 - 5 W_3 - W_4 + 11.9462890625 A_0
     + 11.9462890625 A_1 + 11.9462890625 A_2 + 11.9462890625 A_3
     + 11.9462890625 A_4 <= 0.05
Bounds
 0 <= W_0 <= 1
 0 <= W_1 <= 1
 0 <= W_2 <= 1
 0 <= W_3 <= 1
 0 <= W_4 <= 1
 0 <= A_0 <= 1
 0 <= A_1 <= 1
 0 <= A_2 <= 1
 0 <= A_3 <= 1
 0 <= A_4 <= 1
 0 <= z <= 12
Binaries
 W_0  W_1  W_2  W_3  W_4  A_0  A_1  A_2  A_3  A_4 
End
